
n_res = 8;
rcap = [71, 70, 67, 73, 1653, 1693, 1803, 1792];
rtype = [1, 1, 1, 1, 2, 2, 2, 2];
n_tasks = 100;
modes =  [{1, 2, 3}, {4, 5, 6}, {7, 8, 9}, {10, 11, 12}, {13, 14, 15}, {16, 17, 18}, {19, 20, 21}, {22, 23, 24}, {25, 26, 27}, {28, 29, 30}, {31, 32, 33}, {34, 35, 36}, {37, 38, 39}, {40, 41, 42}, {43, 44, 45}, {46, 47, 48}, {49, 50, 51}, {52, 53, 54}, {55, 56, 57}, {58, 59, 60}, {61, 62, 63}, {64, 65, 66}, {67, 68, 69}, {70, 71, 72}, {73, 74, 75}, {76, 77, 78}, {79, 80, 81}, {82, 83, 84}, {85, 86, 87}, {88, 89, 90}, {91, 92, 93}, {94, 95, 96}, {97, 98, 99}, {100, 101, 102}, {103, 104, 105}, {106, 107, 108}, {109, 110, 111}, {112, 113, 114}, {115, 116, 117}, {118, 119, 120}, {121, 122, 123}, {124, 125, 126}, {127, 128, 129}, {130, 131, 132}, {133, 134, 135}, {136, 137, 138}, {139, 140, 141}, {142, 143, 144}, {145, 146, 147}, {148, 149, 150}, {151, 152, 153}, {154, 155, 156}, {157, 158, 159}, {160, 161, 162}, {163, 164, 165}, {166, 167, 168}, {169, 170, 171}, {172, 173, 174}, {175, 176, 177}, {178, 179, 180}, {181, 182, 183}, {184, 185, 186}, {187, 188, 189}, {190, 191, 192}, {193, 194, 195}, {196, 197, 198}, {199, 200, 201}, {202, 203, 204}, {205, 206, 207}, {208, 209, 210}, {211, 212, 213}, {214, 215, 216}, {217, 218, 219}, {220, 221, 222}, {223, 224, 225}, {226, 227, 228}, {229, 230, 231}, {232, 233, 234}, {235, 236, 237}, {238, 239, 240}, {241, 242, 243}, {244, 245, 246}, {247, 248, 249}, {250, 251, 252}, {253, 254, 255}, {256, 257, 258}, {259, 260, 261}, {262, 263, 264}, {265, 266, 267}, {268, 269, 270}, {271, 272, 273}, {274, 275, 276}, {277, 278, 279}, {280, 281, 282}, {283, 284, 285}, {286, 287, 288}, {289, 290, 291}, {292, 293, 294}, {295, 296, 297}, {298, 299, 300}];
succ =  [{100, 66, 65, 59, 46, 39, 38, 27, 25, 23, 17, 15}, {100, 98, 97, 96, 93, 92, 91, 89, 69, 67, 66, 62, 61, 60, 56, 55, 54, 53, 52, 50, 42, 40, 30}, {68, 66, 63, 56, 55, 51, 50, 41, 40, 27, 9}, {94, 68, 67, 59, 57, 49, 42, 40, 39, 38, 30, 27}, {99, 66, 57, 52, 49, 45, 41, 39, 38, 16}, {99, 88, 66, 55, 50, 49, 48, 42, 38, 37, 36, 27}, {99, 96, 94, 93, 88, 85, 69, 65, 63, 57, 55, 51, 49, 47, 38, 27}, {99, 98, 97, 89, 78, 68, 63, 61, 60, 58, 54, 53, 50, 49, 43, 40, 39}, {98, 97, 96, 93, 91, 90, 89, 88, 87, 86, 80, 79, 73, 65, 64, 62, 61, 54, 53, 49, 38}, {98, 96, 93, 91, 89, 86, 65, 64, 61, 56, 55, 53, 52, 50, 49, 42}, {96, 93, 69, 60, 51, 50, 49, 42, 30}, {99, 97, 92, 89, 86, 84, 82, 77, 71, 61, 57, 56, 52, 50, 39}, {99, 98, 97, 93, 92, 90, 88, 82, 80, 63, 62, 60, 50, 49, 37}, {86, 68, 66, 64, 62, 61, 57, 55, 51, 50, 47, 46, 42}, {99, 92, 90, 88, 84, 69, 67, 61, 55, 52, 50, 31}, {100, 98, 97, 96, 95, 93, 92, 91, 90, 89, 88, 87, 86, 85, 80, 79, 73, 64, 62, 61, 60, 56, 54, 53}, {98, 97, 96, 95, 94, 93, 92, 89, 88, 85, 83, 78, 75, 73, 68, 64, 60, 56, 54, 40}, {97, 94, 93, 92, 91, 88, 86, 82, 74, 67, 64, 63, 60, 58, 49, 48, 42}, {95, 94, 92, 91, 89, 88, 86, 85, 83, 82, 80, 64, 60, 56, 53, 52, 49}, {98, 97, 89, 88, 86, 85, 81, 80, 78, 73, 65, 64, 63, 61, 60, 54, 49}, {99, 97, 96, 94, 92, 90, 89, 88, 86, 85, 84, 80, 79, 78, 77, 75, 73, 71, 66, 61, 60}, {95, 92, 91, 90, 88, 85, 83, 81, 73, 66, 60, 53, 40}, {97, 96, 94, 91, 86, 85, 82, 81, 80, 75, 74, 71, 70, 63, 61, 60, 52}, {97, 96, 90, 87, 86, 85, 79, 75, 73, 67, 63, 38}, {96, 89, 88, 86, 85, 83, 82, 81, 80, 77, 75, 70, 67, 60, 55, 52}, {98, 96, 93, 92, 91, 84, 82, 77, 76, 71, 66, 62, 61, 52}, {98, 91, 89, 87, 86, 84, 83, 80, 74, 73, 62, 60, 54, 53}, {93, 89, 88, 86, 85, 83, 81, 73, 72, 65, 64, 63, 49}, {99, 90, 84, 80, 77, 76, 75, 65, 60, 52, 51}, {99, 86, 83, 81, 78, 74, 73, 65, 63, 45}, {96, 89, 85, 78, 72, 53, 49, 40}, {98, 93, 91, 89, 87, 81, 75, 52, 50}, {99, 92, 89, 87, 83, 82, 78, 73, 72, 45}, {96, 93, 90, 89, 80, 77, 76, 75, 74, 73, 71, 70, 62}, {97, 91, 90, 80, 78, 74, 72, 49}, {97, 93, 91, 85, 82, 75, 74, 73, 71, 70, 63}, {87, 86, 85, 74, 71, 61, 52}, {95, 92, 84, 81, 78, 77, 74, 71, 70, 60}, {96, 93, 90, 88, 87, 80, 75, 74, 73, 62}, {87, 86, 82, 80, 79, 77, 76, 74, 71, 70}, {94, 92, 85, 83, 82, 81, 80, 78, 72, 70}, {90, 87, 81, 80, 78, 76, 75, 73, 70}, {93, 90, 88, 80, 75, 74, 73, 71}, {94, 89, 79, 78, 77, 75, 72, 71}, {88, 79, 77, 76, 75, 71, 70}, {92, 83, 81, 80, 79, 75, 70}, {91, 82, 81, 71, 70, 60}, {87, 76, 75, 73, 72, 70}, {77, 76, 75, 71, 70}, {95, 94, 85, 76, 70}, {91, 74, 73, 71, 70}, {79, 78, 73, 72}, {77, 71, 70}, {76, 72, 71}, {79, 74}, {74, 70}, {74, 72}, {87, 72}, {85, 74}, {72}, {83}, {81}, {84}, {84}, {82}, {70}, {71}, {76}, {83}, {}, {}, {}, {}, {}, {}, {}, {}, {}, {}, {}, {}, {}, {}, {}, {}, {}, {}, {}, {}, {}, {}, {}, {}, {}, {}, {}, {}, {}, {}, {}];
n_opt = 300;
dur = [2, 8, 10, 7, 17, 18, 12, 18, 28, 19, 20, 23, 6, 18, 30, 3, 23, 26, 9, 13, 23, 2, 20, 29, 7, 13, 25, 2, 22, 26, 6, 14, 27, 2, 16, 28, 4, 12, 25, 1, 8, 13, 8, 17, 23, 6, 7, 16, 13, 24, 28, 17, 26, 30, 17, 19, 22, 16, 23, 26, 9, 16, 24, 3, 9, 15, 4, 12, 13, 19, 24, 28, 13, 16, 23, 14, 15, 16, 17, 25, 26, 7, 20, 29, 6, 24, 30, 2, 7, 23, 1, 5, 17, 1, 23, 24, 8, 26, 29, 11, 24, 28, 15, 19, 24, 13, 14, 21, 2, 5, 27, 5, 17, 27, 11, 13, 16, 3, 4, 30, 17, 19, 30, 1, 13, 27, 16, 17, 27, 8, 13, 29, 5, 19, 28, 3, 10, 15, 7, 9, 10, 7, 8, 26, 6, 11, 29, 5, 22, 28, 5, 7, 16, 6, 7, 17, 11, 13, 14, 10, 16, 30, 15, 27, 28, 8, 15, 18, 9, 15, 24, 5, 15, 22, 11, 14, 21, 23, 26, 27, 14, 24, 28, 20, 21, 22, 3, 6, 19, 17, 23, 24, 4, 16, 23, 1, 7, 30, 16, 20, 21, 4, 10, 27, 10, 17, 28, 9, 12, 25, 7, 25, 29, 13, 29, 30, 13, 22, 30, 14, 18, 23, 2, 7, 16, 6, 11, 21, 8, 19, 20, 2, 22, 30, 5, 26, 29, 8, 18, 19, 4, 5, 21, 15, 27, 28, 18, 19, 22, 1, 8, 29, 6, 18, 19, 5, 10, 11, 7, 15, 27, 17, 19, 21, 4, 10, 27, 4, 12, 29, 7, 23, 30, 2, 3, 7, 5, 13, 27, 7, 11, 17, 3, 9, 23, 3, 12, 23, 8, 9, 30, 1, 5, 20, 7, 19, 27, 3, 4, 23];
rreq = [|4, 3, 2, 4, 4, 4, 3, 2, 2, 2, 2, 2, 4, 3, 3, 4, 3, 3, 5, 3, 3, 5, 4, 2, 3, 2, 1, 3, 2, 2, 4, 2, 2, 4, 3, 3, 4, 3, 2, 4, 4, 4, 3, 2, 1, 4, 3, 3, 3, 3, 3, 1, 1, 1, 3, 3, 3, 4, 4, 4, 3, 1, 1, 2, 2, 2, 2, 2, 2, 4, 2, 2, 1, 1, 1, 5, 4, 2, 2, 2, 2, 3, 3, 1, 4, 4, 4, 3, 3, 3, 5, 5, 5, 1, 1, 1, 3, 3, 3, 4, 3, 2, 2, 2, 2, 5, 3, 3, 5, 4, 4, 5, 4, 4, 4, 3, 3, 4, 2, 1, 4, 4, 4, 4, 2, 1, 4, 2, 2, 5, 4, 3, 4, 4, 4, 4, 3, 2, 3, 3, 3, 1, 1, 1, 3, 2, 2, 3, 2, 2, 2, 2, 2, 4, 3, 2, 2, 2, 1, 3, 3, 3, 5, 5, 5, 5, 4, 2, 4, 4, 4, 1, 1, 1, 5, 3, 2, 5, 4, 4, 3, 2, 2, 4, 2, 2, 5, 3, 3, 3, 2, 2, 4, 3, 3, 3, 2, 1, 2, 2, 2, 5, 3, 3, 1, 1, 1, 4, 3, 3, 4, 3, 3, 2, 2, 1, 2, 1, 1, 4, 3, 2, 2, 1, 1, 3, 2, 2, 4, 4, 4, 5, 4, 3, 1, 1, 1, 3, 2, 2, 5, 3, 2, 4, 3, 2, 5, 3, 2, 3, 1, 1, 4, 4, 4, 4, 4, 4, 4, 4, 3, 3, 2, 2, 4, 4, 3, 3, 3, 2, 4, 4, 3, 4, 3, 2, 2, 2, 2, 3, 2, 2, 3, 1, 1, 3, 3, 3, 5, 3, 3, 4, 2, 1, 4, 3, 3, 3, 3, 1
 |4, 2, 1, 4, 3, 3, 5, 2, 2, 3, 3, 3, 3, 3, 3, 4, 4, 4, 1, 1, 1, 2, 2, 2, 4, 3, 3, 4, 2, 1, 2, 1, 1, 3, 1, 1, 3, 3, 3, 3, 2, 1, 5, 4, 4, 3, 3, 1, 2, 2, 2, 5, 3, 1, 5, 4, 3, 3, 2, 2, 5, 3, 2, 5, 3, 3, 4, 2, 2, 5, 2, 1, 3, 1, 1, 4, 4, 4, 2, 1, 1, 3, 3, 1, 3, 2, 1, 4, 4, 3, 4, 4, 3, 4, 4, 3, 1, 1, 1, 3, 3, 3, 2, 2, 1, 5, 3, 1, 1, 1, 1, 3, 2, 2, 4, 2, 2, 2, 2, 2, 4, 4, 4, 5, 4, 3, 4, 4, 4, 1, 1, 1, 5, 4, 2, 4, 4, 4, 2, 2, 2, 5, 5, 5, 5, 5, 5, 4, 4, 3, 3, 3, 3, 2, 1, 1, 2, 1, 1, 2, 2, 1, 1, 1, 1, 4, 3, 3, 4, 3, 2, 1, 1, 1, 3, 2, 2, 1, 1, 1, 3, 3, 3, 3, 2, 1, 3, 3, 3, 2, 1, 1, 4, 4, 4, 4, 4, 3, 3, 3, 1, 3, 3, 3, 3, 3, 2, 3, 3, 3, 4, 3, 2, 2, 2, 2, 2, 2, 2, 4, 3, 3, 5, 4, 4, 5, 4, 4, 3, 3, 2, 3, 3, 3, 2, 2, 1, 5, 4, 3, 2, 2, 2, 3, 3, 2, 4, 4, 2, 3, 2, 2, 3, 3, 3, 4, 3, 3, 5, 4, 4, 3, 3, 2, 5, 4, 3, 4, 4, 4, 3, 3, 3, 3, 2, 2, 1, 1, 1, 4, 4, 4, 4, 4, 4, 1, 1, 1, 4, 3, 2, 3, 3, 3, 3, 2, 2, 3, 1, 1
 |3, 2, 2, 3, 3, 1, 4, 4, 3, 3, 3, 2, 4, 4, 4, 3, 2, 1, 1, 1, 1, 2, 2, 2, 5, 4, 3, 3, 3, 3, 5, 3, 2, 2, 1, 1, 3, 3, 3, 2, 2, 1, 4, 4, 3, 1, 1, 1, 3, 2, 1, 4, 2, 2, 5, 4, 4, 1, 1, 1, 2, 1, 1, 2, 2, 2, 4, 4, 4, 2, 2, 2, 5, 2, 1, 4, 3, 3, 2, 2, 2, 3, 3, 3, 2, 2, 2, 4, 3, 3, 4, 3, 3, 5, 3, 1, 4, 2, 2, 5, 4, 3, 4, 3, 3, 4, 4, 3, 4, 2, 2, 4, 3, 2, 2, 1, 1, 2, 2, 1, 1, 1, 1, 5, 4, 3, 3, 2, 1, 3, 3, 3, 5, 4, 4, 2, 1, 1, 2, 2, 2, 5, 5, 5, 2, 2, 2, 3, 2, 1, 5, 4, 4, 3, 3, 3, 5, 5, 5, 5, 4, 4, 3, 3, 3, 4, 2, 2, 3, 3, 3, 4, 4, 2, 4, 4, 3, 5, 3, 2, 5, 3, 3, 2, 1, 1, 4, 3, 3, 3, 2, 1, 4, 3, 3, 2, 1, 1, 2, 2, 2, 3, 1, 1, 5, 4, 3, 3, 2, 1, 2, 2, 2, 4, 4, 4, 2, 2, 1, 3, 2, 2, 4, 2, 2, 2, 2, 2, 2, 2, 2, 4, 4, 4, 3, 2, 1, 4, 4, 4, 3, 3, 2, 4, 3, 3, 4, 3, 1, 4, 2, 2, 5, 4, 4, 5, 4, 2, 2, 2, 2, 2, 1, 1, 3, 2, 1, 4, 4, 4, 3, 3, 3, 4, 2, 2, 3, 3, 3, 4, 3, 3, 2, 2, 2, 3, 2, 2, 5, 4, 3, 3, 1, 1, 3, 2, 1, 4, 4, 4
 |2, 1, 1, 2, 2, 2, 4, 2, 1, 5, 4, 4, 5, 4, 4, 4, 4, 2, 4, 2, 2, 2, 2, 2, 5, 4, 3, 3, 2, 2, 3, 3, 3, 4, 2, 2, 5, 2, 2, 4, 4, 3, 3, 3, 1, 3, 1, 1, 4, 3, 3, 3, 2, 2, 5, 3, 3, 1, 1, 1, 3, 3, 3, 5, 4, 4, 2, 2, 2, 2, 2, 2, 4, 2, 1, 5, 4, 4, 5, 4, 4, 5, 4, 4, 4, 2, 1, 2, 2, 2, 2, 2, 2, 5, 3, 3, 3, 3, 2, 4, 3, 2, 1, 1, 1, 5, 3, 3, 5, 4, 4, 3, 2, 1, 4, 2, 1, 3, 2, 2, 4, 4, 4, 2, 2, 2, 2, 2, 1, 3, 3, 2, 1, 1, 1, 4, 2, 2, 2, 2, 2, 3, 1, 1, 5, 3, 2, 3, 3, 3, 1, 1, 1, 4, 4, 4, 5, 3, 2, 5, 3, 3, 2, 2, 2, 2, 2, 2, 4, 2, 2, 3, 2, 2, 4, 3, 3, 5, 5, 5, 5, 4, 3, 3, 3, 2, 4, 2, 2, 4, 2, 1, 1, 1, 1, 5, 5, 5, 4, 2, 2, 4, 4, 4, 4, 4, 3, 4, 4, 3, 3, 3, 2, 5, 3, 3, 5, 5, 5, 3, 2, 1, 3, 2, 1, 2, 1, 1, 4, 2, 2, 3, 2, 2, 4, 4, 4, 5, 4, 3, 4, 2, 2, 3, 1, 1, 3, 3, 3, 5, 4, 2, 2, 2, 2, 3, 3, 2, 3, 1, 1, 1, 1, 1, 2, 2, 2, 4, 4, 4, 3, 1, 1, 4, 4, 3, 3, 3, 2, 4, 3, 3, 4, 3, 2, 4, 4, 3, 4, 3, 2, 3, 1, 1, 5, 4, 3, 1, 1, 1
 |15, 13, 12, 28, 26, 26, 22, 19, 12, 16, 15, 14, 20, 15, 13, 20, 15, 10, 22, 19, 7, 22, 16, 8, 29, 12, 10, 25, 23, 13, 9, 9, 9, 17, 14, 8, 20, 19, 18, 26, 23, 22, 14, 12, 8, 21, 16, 7, 22, 18, 3, 3, 1, 1, 22, 21, 21, 28, 25, 23, 11, 11, 11, 23, 22, 20, 18, 8, 4, 20, 20, 20, 22, 16, 10, 6, 6, 3, 17, 15, 11, 15, 11, 6, 20, 19, 18, 23, 23, 13, 9, 5, 4, 24, 24, 22, 16, 15, 12, 24, 16, 14, 15, 12, 4, 2, 2, 2, 24, 15, 5, 9, 8, 2, 22, 20, 9, 23, 22, 18, 5, 3, 3, 26, 25, 24, 21, 20, 15, 16, 15, 15, 24, 18, 11, 12, 9, 7, 20, 17, 10, 30, 27, 26, 11, 9, 8, 25, 25, 23, 29, 13, 9, 28, 13, 12, 8, 7, 6, 24, 16, 6, 21, 17, 9, 18, 16, 13, 23, 19, 14, 4, 4, 4, 8, 6, 5, 26, 24, 19, 11, 11, 10, 14, 12, 11, 18, 15, 11, 19, 14, 9, 19, 18, 17, 17, 13, 6, 13, 10, 9, 13, 8, 7, 16, 14, 13, 9, 7, 6, 14, 10, 4, 14, 14, 14, 27, 18, 13, 23, 12, 4, 10, 9, 6, 12, 11, 11, 23, 17, 14, 25, 24, 23, 20, 18, 9, 18, 18, 18, 18, 17, 17, 27, 27, 23, 5, 4, 2, 16, 12, 8, 20, 14, 11, 23, 20, 16, 10, 5, 5, 26, 25, 25, 4, 3, 3, 26, 26, 26, 26, 20, 12, 8, 8, 3, 24, 21, 8, 18, 17, 11, 22, 21, 21, 28, 15, 9, 20, 15, 6, 17, 14, 10, 8, 4, 4, 20, 15, 14
 |26, 19, 8, 14, 10, 9, 14, 7, 1, 18, 17, 16, 27, 20, 17, 22, 20, 18, 1, 1, 1, 24, 21, 21, 27, 22, 22, 14, 10, 4, 20, 16, 9, 7, 4, 3, 21, 14, 3, 23, 22, 22, 9, 8, 7, 16, 15, 15, 25, 16, 14, 20, 9, 9, 16, 9, 7, 28, 21, 16, 4, 3, 1, 23, 22, 21, 17, 14, 13, 13, 5, 5, 29, 20, 8, 18, 18, 16, 25, 23, 19, 9, 6, 4, 26, 19, 12, 24, 18, 12, 27, 20, 14, 12, 12, 9, 15, 13, 2, 21, 21, 21, 23, 22, 14, 17, 13, 11, 25, 22, 16, 28, 13, 9, 5, 4, 1, 24, 21, 17, 26, 19, 15, 22, 15, 10, 17, 12, 7, 14, 8, 7, 4, 2, 2, 27, 25, 22, 21, 20, 20, 15, 9, 3, 15, 14, 9, 21, 21, 18, 7, 6, 5, 24, 21, 20, 23, 19, 14, 3, 2, 2, 7, 5, 4, 8, 6, 5, 11, 9, 7, 21, 17, 16, 25, 22, 22, 27, 18, 10, 18, 16, 12, 10, 10, 10, 20, 20, 20, 8, 8, 6, 27, 27, 25, 15, 13, 3, 19, 10, 9, 13, 11, 9, 22, 21, 14, 24, 15, 11, 30, 22, 15, 12, 6, 5, 24, 23, 23, 27, 26, 25, 7, 7, 7, 19, 16, 13, 16, 11, 10, 27, 27, 25, 18, 10, 8, 26, 20, 15, 23, 18, 13, 25, 16, 12, 20, 10, 3, 26, 14, 14, 30, 27, 24, 13, 11, 2, 9, 8, 6, 17, 12, 8, 11, 8, 3, 21, 19, 19, 17, 16, 14, 19, 15, 8, 26, 26, 23, 11, 4, 2, 26, 26, 26, 21, 16, 13, 18, 16, 11, 19, 14, 12, 12, 11, 11, 25, 24, 20
 |13, 11, 7, 19, 11, 7, 16, 10, 6, 22, 19, 15, 14, 13, 10, 20, 14, 8, 21, 15, 10, 23, 20, 13, 24, 21, 14, 29, 27, 26, 20, 18, 14, 18, 13, 11, 2, 2, 1, 17, 16, 15, 14, 8, 6, 19, 14, 11, 16, 15, 14, 13, 11, 11, 20, 20, 17, 29, 28, 28, 14, 6, 6, 6, 6, 6, 13, 12, 12, 29, 20, 15, 27, 24, 22, 28, 21, 21, 28, 26, 23, 28, 26, 23, 20, 15, 8, 25, 17, 8, 24, 18, 8, 24, 23, 22, 20, 18, 9, 23, 22, 18, 13, 11, 7, 14, 7, 3, 15, 14, 14, 8, 4, 2, 9, 6, 1, 14, 12, 8, 25, 22, 21, 16, 14, 9, 8, 8, 6, 21, 18, 14, 27, 14, 12, 23, 21, 19, 14, 9, 5, 26, 26, 26, 16, 16, 16, 18, 10, 9, 23, 18, 13, 22, 21, 21, 8, 8, 6, 27, 25, 22, 25, 20, 13, 22, 13, 7, 16, 14, 13, 24, 16, 11, 22, 21, 15, 15, 13, 13, 21, 16, 13, 25, 22, 16, 23, 23, 23, 25, 23, 21, 15, 15, 13, 26, 21, 17, 20, 19, 17, 30, 29, 29, 17, 10, 8, 7, 6, 6, 26, 26, 25, 27, 16, 11, 27, 17, 7, 17, 17, 17, 12, 9, 8, 22, 19, 14, 18, 17, 16, 28, 17, 16, 5, 3, 2, 22, 18, 13, 17, 11, 4, 12, 8, 2, 12, 7, 5, 21, 19, 18, 17, 15, 14, 25, 21, 21, 23, 23, 21, 22, 20, 18, 15, 11, 8, 24, 17, 7, 29, 27, 26, 18, 16, 13, 12, 9, 6, 26, 26, 24, 28, 21, 14, 23, 22, 16, 27, 19, 7, 30, 29, 28, 20, 15, 12, 5, 3, 2
 |26, 24, 24, 25, 24, 24, 26, 20, 14, 25, 22, 21, 12, 9, 8, 24, 14, 11, 28, 24, 19, 20, 17, 15, 18, 17, 15, 28, 25, 20, 17, 15, 15, 20, 17, 9, 15, 10, 9, 30, 19, 11, 26, 16, 11, 30, 18, 11, 12, 10, 2, 19, 19, 18, 15, 13, 13, 18, 13, 6, 17, 15, 15, 10, 9, 7, 8, 8, 8, 25, 19, 17, 27, 27, 26, 22, 18, 17, 23, 22, 21, 28, 28, 27, 15, 8, 3, 10, 10, 8, 20, 16, 2, 9, 7, 7, 17, 13, 12, 16, 9, 7, 25, 22, 17, 10, 5, 4, 21, 17, 13, 20, 15, 8, 27, 27, 27, 22, 17, 15, 24, 18, 12, 9, 9, 7, 11, 9, 8, 27, 26, 25, 30, 26, 23, 4, 3, 3, 9, 7, 7, 23, 20, 12, 24, 21, 14, 24, 20, 18, 4, 3, 3, 18, 15, 14, 20, 16, 9, 19, 13, 7, 16, 16, 16, 30, 29, 28, 13, 12, 7, 15, 10, 8, 23, 23, 23, 18, 14, 11, 27, 20, 17, 25, 24, 17, 23, 18, 15, 20, 18, 14, 22, 21, 19, 14, 8, 6, 22, 10, 10, 25, 22, 19, 29, 24, 22, 12, 10, 7, 22, 18, 4, 22, 12, 9, 22, 12, 8, 24, 19, 15, 10, 10, 10, 15, 9, 4, 14, 9, 1, 24, 23, 23, 18, 12, 6, 19, 16, 13, 19, 18, 14, 28, 27, 24, 29, 27, 27, 11, 6, 1, 26, 24, 23, 18, 11, 4, 13, 13, 13, 8, 8, 8, 24, 13, 6, 23, 19, 11, 22, 22, 18, 11, 11, 10, 26, 16, 15, 23, 9, 7, 20, 16, 13, 17, 13, 7, 23, 14, 6, 5, 5, 4, 30, 22, 16, 17, 10, 4|];